61
120
84	7
83	10
82	7
81	8
80	9
79	9
78	3
77	12
76	10
75	10
74	4
73	5
72	5
71	10
70	7
69	8
68	12
67	3
66	9
65	8
64	11
63	10
62	7
61	10
60	6
59	13
58	12
57	11
56	4
55	9
54	11
53	8
52	6
51	3
50	6
49	5
48	18
47	8
46	13
45	6
44	8
43	10
42	10
41	9
40	11
39	7
38	11
37	5
36	7
35	8
34	8
33	6
32	10
31	10
30	7
29	5
28	6
27	4
26	9
25	6
24	10
